-63.0 1.0 5.0 8.0 7.0 10.0 6.0 3.0 8.0 5.0 10.0 
1.0 -41.0 9.0 5.0 10.0 1.0 8.0 7.0 0.0 0.0 0.0 
5.0 9.0 -65.0 7.0 6.0 7.0 10.0 6.0 6.0 0.0 9.0 
8.0 5.0 7.0 -52.0 0.0 4.0 4.0 5.0 4.0 9.0 6.0 
7.0 10.0 6.0 0.0 -52.0 3.0 9.0 3.0 5.0 0.0 9.0 
10.0 1.0 7.0 4.0 3.0 -37.0 0.0 2.0 1.0 2.0 7.0 
6.0 8.0 10.0 4.0 9.0 0.0 -56.0 3.0 5.0 7.0 4.0 
3.0 7.0 6.0 5.0 3.0 2.0 3.0 -37.0 0.0 2.0 6.0 
8.0 0.0 6.0 4.0 5.0 1.0 5.0 0.0 -41.0 7.0 5.0 
5.0 0.0 0.0 9.0 0.0 2.0 7.0 2.0 7.0 -42.0 10.0 
10.0 0.0 9.0 6.0 9.0 7.0 4.0 6.0 5.0 10.0 -66.0 

